50
    1   447   274
    2   483   571
    3   425    61
    4   609   658
    5   514   535
    6   998   792
    7    34   560
    8   304   370
    9   495   584
   10   743   889
   11   400     6
   12    32   466
   13   612   919
   14   535   139
   15   336   383
   16   809    27
   17   735   896
   18   599   911
   19   427   628
   20   966   933
   21   954   176
   22   780   254
   23   677   279
   24   829   589
   25   370   407
   26   203   127
   27   457   933
   28    20   126
   29   523   624
   30   677   462
   31   590   596
   32   125   970
   33   189   382
   34   156   516
   35   180   895
   36   354   760
   37   946   423
   38   444    35
   39   951   223
   40   976   517
   41   517   258
   42    18   888
   43   602   489
   44   664    20
   45   339   898
   46    96   345
   47   909   876
   48   817   776
   49   109   938
   50   230   663
13023
